# seed 1556116333
# options regular short good fancy
# SST2K version 2.4
# Test ill-formed torpedo command
# recorded by esr@snark.thyrsus.com on Wed Apr 24 11:16:25 2019
chart
m a 3 7 1 2
sh up
torp 1 7 9
p a
199
sh down
chart
m a 2 10

m 7 4 1 1
torp 3 2 1 2 1 2 1
torp 1 8 10
m a 6 10
dock
rep
chart
m a 6 7 1 1
chaer
chart
sh down
m a 8 9
sh up
m a 8 10 8 1
m a 8 10 8 1
m a 8 10 8 1
move auto
6 8 8 1
m 7 8 1 1
n
m a 7 8 1 1
torp 3 5 5 5 6 6 6
torp torp 2 7 2 10 3
2 
7 2
10 3
lrscan
srscan
m a 1 10
p a
432
srscan
rep
chart
m a 1 1
lrscan
srscan
torp 2 2 1 2
torp 2 2 1 2 1
torp 2 1 2 1 2
srscan
p a
51
chart
rep
st
move a 4 8 1 3
srscan
torp 3
7 9
7 9
7 9
lrscan
srscan
p a
p
p m
349
srscan
chart
sh down
m a 7 4 1 10
quit
