# seed 1556125056
# options regular short good fancy
# SST2K version 2.4
# Test winning end of game
# recorded by esr@snark.thyrsus.com on Wed Apr 24 12:57:36 2019
chart
m a 7 8
m a 7 7
m a 1 1
sh up
m a 5 7 10 1
torp 1 5 3
torp 1 5 3
chart
sh down
m a 1 1
m a 10 6
torp 1 3 7
torp 1 9 7
chart
m a 1 8 1 1
m a 10 1
torp a 4 3
torp 1 4 3
torp 1 9 1
chart
m a 7 3 5 5
m a 1 3
m a 1 4
dock
chart
m a 5 1 10 10
p a 
641
capture
chart
rep
chart
sh down
m a 1 10
chart
m s 4 1 1 1
chart
m a 4 1 10 10
chart
m a 1 10
chart
m a 3 1 1 10
chart
chart
probe
y
n
a
3 8
chart
m a 1 1 10 10
m a 6 9
m a 9 5
d
chart

sh down

m a 2 2 10 10

m a 4 3 10 10

m a 7 2 10 1

rep

m a 7 4 10 10

sh up

m a 8 5 1 1
torp 3 4 3 4 4 6
to 3 34 34 4 6
torp 3
3 4
3 4
4 6
p a
1085
torp 2 8 6 9 2
p a
134

m a 7 4 10 10
m a 3 7
d

rep

sh down

m a 8 6 10 10

sh up
m a 8 8 10 1

sh down
rep

m a 6 5 1 1
sh up

sh down

m a 3 6 1 10

sh up

m a 1 7 10 1

m a 1 8 1 1
p a
1051
p a
299
n
