# seed 1556204283
# options regular short good fancy
# SST2K version 2.5
# Test game end due to running out of time
# recorded by esr@snark.thyrsus.com on Thu Apr 25 10:58:03 2019

sh up
m a 1 6 4 1
torp 2 1 6 6 4

m a 1 7 4 10

m a 9 8

m a 2 8 1 1

torp 2 1 4
torp 2 10 2


m a 3 8 1 1
m a 3 1
d

rest
1

probe
y
n
a
3 1
rest 0.5

sh down
m a 4 2

m a 4 7 1 10

m a 1 7
m a 7 1

sh up
m a 5 6 1 10
p a
945

m a 1 4 10 10
torp 2 8 8
torp 1 3 7

m a 3 6
d

rep


sh down
m a 1 3 1 1

m a 1 2 1 1

m a 10 1

m a 3 2 1 1


m a 10 1

m a 3 2
m a 10 1
n
m a 10 1

y
n
