# seed 1556120044
# options regular short good fancy
# Test deep-space probes and battle death
# recorded by esr@snark.thyrsus.com on Wed Apr 24 11:34:04 2019
chart
m a 1 10
s hup
m a 2 7 1 1
chart
probe
y
n
a
2 1
sh up
m 1 7 10 1
m a 6 10
torp 2 1 8 1 8
torp 1 5 9
chart
m a 10 6
torp 2 10 6
torp 1 3 3
chart
probe
y
n
a
7 10
chart
probe
y
n
a
7 8
chart
m a 5 3 5 5
chart
sh down
m a 1 1
chart
m a 4 2 10 10
m a 10 4
m a 6 4
p a
646
sh down
chart
m a 4 2 1 10
quit
